(set-logic QF_S)
(declare-fun var_0xINPUT_26263 () String)
(assert (and (= (len var_0xINPUT_26263) 0) (= (len var_0xINPUT_26263) 0) (not (= var_0xINPUT_26263 "3s71lxYG6e"))))
(check-sat var_0xINPUT_26263)